\ENCODING=ISO-8859-1
\Problem name: IloCplex

Minimize
 obj: x1 + 3 x2 + 41 x3 + x4 + 151 x5 + 7 x6 + 21 x8 + 30 x9 + 5 x11 + 9 x12
      + 22 x13 + 14 x14
Subject To
 c1: - 10 x2 - 4 x3 - 10 x4 - x5 - 8 x6 - 11 x7 - 5 x8 - 4 x9 - 10 x10 - 9 x11
     - 6 x12 - 4 x13 - 5 x14 >= -5
 c2: x2 + x3 + x4 + x5 + x6 + x7 + x8 + x9 + x10 + x11 + x12 + x13 + x14 >= 1
Bounds
      x1 = 0
End
